Cost: 514
0-20-35-36-28-31-0
0-14-23-7-26-8-0
0-33-10-30-34-50-0
0-16-29-2-22-1-0
0-5-38-11-32-27-0
0-47-17-37-12-46-0
0-4-18-25-24-6-0
Cost: 514
0-20-35-36-28-31-0
0-14-23-7-26-8-0
0-33-10-30-34-50-0
0-16-29-2-22-1-0
0-5-38-11-32-27-0
0-47-17-37-12-46-0
0-4-18-25-24-6-0
Cost: 514
0-20-35-36-28-31-0
0-14-23-7-26-8-0
0-33-10-30-34-50-0
0-16-29-2-22-1-0
0-5-38-11-32-27-0
0-47-17-37-12-46-0
0-4-18-25-24-6-0
Cost: 514
0-20-35-36-28-31-0
0-14-23-7-26-8-0
0-33-10-30-34-50-0
0-16-29-2-22-1-0
0-5-38-11-32-27-0
0-47-17-37-12-46-0
0-4-18-25-24-6-0
Cost: 514
0-20-35-36-28-31-0
0-14-23-7-26-8-0
0-33-10-30-34-50-0
0-16-29-2-22-1-0
0-5-38-11-32-27-0
0-47-17-37-12-46-0
0-4-18-25-24-6-0
Cost: 514
0-20-35-36-28-31-0
0-14-23-7-26-8-0
0-33-10-30-34-50-0
0-16-29-2-22-1-0
0-5-38-11-32-27-0
0-47-17-37-12-46-0
0-4-18-25-24-6-0
Cost: 514
0-20-35-36-28-31-0
0-14-23-7-26-8-0
0-33-10-30-34-50-0
0-16-29-2-22-1-0
0-5-38-11-32-27-0
0-47-17-37-12-46-0
0-4-18-25-24-6-0
Cost: 514
0-20-35-36-28-31-0
0-14-23-7-26-8-0
0-33-10-30-34-50-0
0-16-29-2-22-1-0
0-5-38-11-32-27-0
0-47-17-37-12-46-0
0-4-18-25-24-6-0
Cost: 514
0-20-35-36-28-31-0
0-14-23-7-26-8-0
0-33-10-30-34-50-0
0-16-29-2-22-1-0
0-5-38-11-32-27-0
0-47-17-37-12-46-0
0-4-18-25-24-6-0
Cost: 514
0-20-35-36-28-31-0
0-14-23-7-26-8-0
0-33-10-30-34-50-0
0-16-29-2-22-1-0
0-5-38-11-32-27-0
0-47-17-37-12-46-0
0-4-18-25-24-6-0
Cost: 514
0-20-35-36-28-31-0
0-14-23-7-26-8-0
0-33-10-30-34-50-0
0-16-29-2-22-1-0
0-5-38-11-32-27-0
0-47-17-37-12-46-0
0-4-18-25-24-6-0
Cost: 514
0-20-35-36-28-31-0
0-14-23-7-26-8-0
0-33-10-30-34-50-0
0-16-29-2-22-1-0
0-5-38-11-32-27-0
0-47-17-37-12-46-0
0-4-18-25-24-6-0
Cost: 514
0-20-35-36-28-31-0
0-14-23-7-26-8-0
0-33-10-30-34-50-0
0-16-29-2-22-1-0
0-5-38-11-32-27-0
0-47-17-37-12-46-0
0-4-18-25-24-6-0
Cost: 514
0-20-35-36-28-31-0
0-14-23-7-26-8-0
0-33-10-30-34-50-0
0-16-29-2-22-1-0
0-5-38-11-32-27-0
0-47-17-37-12-46-0
0-4-18-25-24-6-0
Cost: 514
0-20-35-36-28-31-0
0-14-23-7-26-8-0
0-33-10-30-34-50-0
0-16-29-2-22-1-0
0-5-38-11-32-27-0
0-47-17-37-12-46-0
0-4-18-25-24-6-0
Cost: 514
0-20-35-36-28-31-0
0-14-23-7-26-8-0
0-33-10-30-34-50-0
0-16-29-2-22-1-0
0-5-38-11-32-27-0
0-47-17-37-12-46-0
0-4-18-25-24-6-0
Cost: 514
0-20-35-36-28-31-0
0-14-23-7-26-8-0
0-33-10-30-34-50-0
0-16-29-2-22-1-0
0-5-38-11-32-27-0
0-47-17-37-12-46-0
0-4-18-25-24-6-0
Cost: 514
0-20-35-36-28-31-0
0-14-23-7-26-8-0
0-33-10-30-34-50-0
0-16-29-2-22-1-0
0-5-38-11-32-27-0
0-47-17-37-12-46-0
0-4-18-25-24-6-0
Cost: 514
0-20-35-36-28-31-0
0-14-23-7-26-8-0
0-33-10-30-34-50-0
0-16-29-2-22-1-0
0-5-38-11-32-27-0
0-47-17-37-12-46-0
0-4-18-25-24-6-0
Cost: 514
0-20-35-36-28-31-0
0-14-23-7-26-8-0
0-33-10-30-34-50-0
0-16-29-2-22-1-0
0-5-38-11-32-27-0
0-47-17-37-12-46-0
0-4-18-25-24-6-0
Cost: 514
0-20-35-36-28-31-0
0-14-23-7-26-8-0
0-33-10-30-34-50-0
0-16-29-2-22-1-0
0-5-38-11-32-27-0
0-47-17-37-12-46-0
0-4-18-25-24-6-0
Cost: 514
0-20-35-36-28-31-0
0-14-23-7-26-8-0
0-33-10-30-34-50-0
0-16-29-2-22-1-0
0-5-38-11-32-27-0
0-47-17-37-12-46-0
0-4-18-25-24-6-0
Cost: 514
0-1-22-2-29-16-0
0-31-28-36-35-20-0
0-5-38-11-32-27-0
0-46-12-37-17-47-0
0-50-34-30-10-33-0
0-6-24-25-18-4-0
0-8-26-7-23-14-0
Cost: 514
0-20-35-36-28-31-0
0-14-23-7-26-8-0
0-33-10-30-34-50-0
0-16-29-2-22-1-0
0-5-38-11-32-27-0
0-47-17-37-12-46-0
0-4-18-25-24-6-0
Cost: 514
0-20-35-36-28-31-0
0-14-23-7-26-8-0
0-33-10-30-34-50-0
0-16-29-2-22-1-0
0-5-38-11-32-27-0
0-47-17-37-12-46-0
0-4-18-25-24-6-0
Cost: 514
0-20-35-36-28-31-0
0-14-23-7-26-8-0
0-33-10-30-34-50-0
0-16-29-2-22-1-0
0-5-38-11-32-27-0
0-47-17-37-12-46-0
0-4-18-25-24-6-0
Cost: 0
Cost: 0
Cost: 0
Cost: 0
Cost: 0
